(set-info :smt-lib-version 2.6)
(set-logic UF)
(set-info :source |Benchmarks from the paper: "Extending Sledgehammer with SMT Solvers" by Jasmin Blanchette, Sascha Bohme, and Lawrence C. Paulson, CADE 2011.  Translated to SMT2 by Andrew Reynolds and Morgan Deters.|)
(set-info :category "industrial")
(set-info :status sat)
(declare-sort S1 0)
(declare-sort S2 0)
(declare-sort S3 0)
(declare-sort S4 0)
(declare-sort S5 0)
(declare-sort S6 0)
(declare-sort S7 0)
(declare-sort S8 0)
(declare-sort S9 0)
(declare-sort S10 0)
(declare-sort S11 0)
(declare-sort S12 0)
(declare-sort S13 0)
(declare-sort S14 0)
(declare-sort S15 0)
(declare-sort S16 0)
(declare-sort S17 0)
(declare-sort S18 0)
(declare-fun f1 () S1)
(declare-fun f2 () S1)
(declare-fun f3 (S3 S2) S4)
(declare-fun f4 () S3)
(declare-fun f5 () S3)
(declare-fun f6 (S5 S2) S2)
(declare-fun f7 (S6 S2) S5)
(declare-fun f8 () S6)
(declare-fun f9 (S7 S8) S2)
(declare-fun f10 () S7)
(declare-fun f11 (S9 S8) S8)
(declare-fun f12 () S9)
(declare-fun f13 () S9)
(declare-fun f14 () S8)
(declare-fun f15 () S3)
(declare-fun f16 () S5)
(declare-fun f17 (S10 S3) S3)
(declare-fun f18 (S11 S2) S10)
(declare-fun f19 () S11)
(declare-fun f20 () S6)
(declare-fun f21 () S2)
(declare-fun f22 () S2)
(declare-fun f23 (S12 S4) S4)
(declare-fun f24 (S13 S4) S12)
(declare-fun f25 () S13)
(declare-fun f26 () S11)
(declare-fun f27 () S6)
(declare-fun f28 () S13)
(declare-fun f29 (S14 S4) S3)
(declare-fun f30 () S14)
(declare-fun f31 () S3)
(declare-fun f32 (S2 S2) S1)
(declare-fun f33 (S15 S2) S8)
(declare-fun f34 (S16 S8) S15)
(declare-fun f35 () S16)
(declare-fun f36 (S17 S8) S9)
(declare-fun f37 () S17)
(declare-fun f38 (S18 S8) S4)
(declare-fun f39 () S18)
(declare-fun f40 () S9)
(assert (not (= f1 f2)))
(assert (forall ((?v0 S2)) (= (f3 f4 ?v0) (f3 f5 (f6 (f7 f8 (f9 f10 (f11 f12 (f11 f13 f14)))) ?v0)))))
(assert (forall ((?v0 S2)) (= (f3 f15 ?v0) (f3 f5 (f6 f16 (f6 (f7 f8 (f9 f10 (f11 f12 (f11 f13 f14)))) ?v0))))))
(assert (let ((?v_0 (f9 f10 (f11 f12 (f11 f13 f14))))) (let ((?v_1 (f6 (f7 f20 ?v_0) f21))) (let ((?v_2 (f6 (f7 f8 ?v_0) ?v_1)) (?v_4 (f18 f26 f21)) (?v_3 (f6 (f7 f27 f22) ?v_1))) (not (= (f3 (f17 (f18 f19 ?v_2) f5) f22) (f23 (f24 f25 (f3 (f17 ?v_4 f4) ?v_3)) (f23 (f24 f28 (f3 (f29 f30 (f3 f31 ?v_2)) ?v_3)) (f3 (f17 ?v_4 f15) ?v_3)))))))))
(assert (not (= (f32 f22 (f6 (f7 f20 (f9 f10 (f11 f12 (f11 f13 f14)))) f21)) f1)))
(assert (let ((?v_0 (f9 f10 (f11 f12 (f11 f13 f14))))) (= (f32 f22 (f6 (f7 f8 ?v_0) (f6 (f7 f20 ?v_0) f21))) f1)))
(assert (let ((?v_0 (f6 (f7 f20 (f9 f10 (f11 f12 (f11 f13 f14)))) f21))) (= (f32 (f6 (f7 f27 f22) ?v_0) ?v_0) f1)))
(assert (not (= (f32 f22 (f6 (f7 f20 (f9 f10 (f11 f12 (f11 f13 f14)))) f21)) f1)))
(assert (= (f32 f22 (f6 (f7 f20 (f9 f10 (f11 f12 (f11 f13 f14)))) (f6 f16 f21))) f1))
(assert (forall ((?v0 S2) (?v1 S3)) (let ((?v_0 (f6 (f7 f20 (f9 f10 (f11 f12 (f11 f13 f14)))) f21))) (=> (= (f32 ?v0 ?v_0) f1) (= (f3 (f17 (f18 f19 ?v_0) ?v1) ?v0) (f3 (f17 (f18 f26 f21) ?v1) ?v0))))))
(assert (let ((?v_0 (f6 (f7 f20 (f9 f10 (f11 f12 (f11 f13 f14)))) f21))) (= (f32 (f6 (f7 f27 f22) ?v_0) ?v_0) f1)))
(assert (forall ((?v0 S2) (?v1 S2) (?v2 S2)) (let ((?v_0 (f7 f8 (f9 f10 (f11 f12 (f11 f13 f14))))) (?v_1 (f7 f8 ?v1))) (= (f3 (f29 f30 (f3 f31 (f6 ?v_0 ?v0))) (f6 ?v_1 (f6 ?v_0 ?v2))) (f3 (f29 f30 (f3 f31 ?v0)) (f6 ?v_1 ?v2))))))
(assert (forall ((?v0 S2) (?v1 S2)) (let ((?v_1 (f9 f10 (f11 f12 (f11 f13 f14)))) (?v_0 (f7 f20 ?v0))) (= (f6 ?v_0 (f6 f16 (f6 (f7 f8 ?v_1) ?v1))) (f6 (f7 f8 ?v0) (f6 (f7 f20 (f6 ?v_0 ?v1)) ?v_1))))))
(assert (forall ((?v0 S4) (?v1 S2)) (let ((?v_1 (f9 f10 (f11 f12 (f11 f13 f14)))) (?v_0 (f29 f30 ?v0))) (= (f3 ?v_0 (f6 f16 (f6 (f7 f8 ?v_1) ?v1))) (f23 (f24 f28 ?v0) (f3 (f29 f30 (f3 ?v_0 ?v1)) ?v_1))))))
(assert (forall ((?v0 S8) (?v1 S2)) (let ((?v_1 (f9 f10 (f11 f12 (f11 f13 f14)))) (?v_0 (f34 f35 ?v0))) (= (f33 ?v_0 (f6 f16 (f6 (f7 f8 ?v_1) ?v1))) (f11 (f36 f37 ?v0) (f33 (f34 f35 (f33 ?v_0 ?v1)) ?v_1))))))
(assert (forall ((?v0 S2) (?v1 S2)) (let ((?v_0 (f7 f20 ?v0))) (let ((?v_1 (f6 ?v_0 ?v1))) (= (f6 ?v_0 (f6 f16 (f6 (f7 f8 (f9 f10 (f11 f12 (f11 f13 f14)))) ?v1))) (f6 (f7 f8 ?v0) (f6 (f7 f8 ?v_1) ?v_1)))))))
(assert (forall ((?v0 S4) (?v1 S2)) (let ((?v_0 (f29 f30 ?v0))) (let ((?v_1 (f3 ?v_0 ?v1))) (= (f3 ?v_0 (f6 f16 (f6 (f7 f8 (f9 f10 (f11 f12 (f11 f13 f14)))) ?v1))) (f23 (f24 f28 ?v0) (f23 (f24 f28 ?v_1) ?v_1)))))))
(assert (forall ((?v0 S8) (?v1 S2)) (let ((?v_0 (f34 f35 ?v0))) (let ((?v_1 (f33 ?v_0 ?v1))) (= (f33 ?v_0 (f6 f16 (f6 (f7 f8 (f9 f10 (f11 f12 (f11 f13 f14)))) ?v1))) (f11 (f36 f37 ?v0) (f11 (f36 f37 ?v_1) ?v_1)))))))
(assert (forall ((?v0 S2) (?v1 S2)) (let ((?v_0 (f7 f20 ?v0))) (let ((?v_1 (f6 ?v_0 ?v1))) (= (f6 ?v_0 (f6 (f7 f8 (f9 f10 (f11 f12 (f11 f13 f14)))) ?v1)) (f6 (f7 f8 ?v_1) ?v_1))))))
(assert (forall ((?v0 S4) (?v1 S2)) (let ((?v_0 (f29 f30 ?v0))) (let ((?v_1 (f3 ?v_0 ?v1))) (= (f3 ?v_0 (f6 (f7 f8 (f9 f10 (f11 f12 (f11 f13 f14)))) ?v1)) (f23 (f24 f28 ?v_1) ?v_1))))))
(assert (forall ((?v0 S8) (?v1 S2)) (let ((?v_0 (f34 f35 ?v0))) (let ((?v_1 (f33 ?v_0 ?v1))) (= (f33 ?v_0 (f6 (f7 f8 (f9 f10 (f11 f12 (f11 f13 f14)))) ?v1)) (f11 (f36 f37 ?v_1) ?v_1))))))
(assert (forall ((?v0 S8)) (let ((?v_0 (f9 f10 ?v0))) (= (f6 (f7 f20 ?v_0) (f9 f10 (f11 f12 (f11 f13 f14)))) (f6 (f7 f8 ?v_0) ?v_0)))))
(assert (forall ((?v0 S8)) (let ((?v_0 (f38 f39 ?v0))) (= (f3 (f29 f30 ?v_0) (f9 f10 (f11 f12 (f11 f13 f14)))) (f23 (f24 f28 ?v_0) ?v_0)))))
(assert (forall ((?v0 S8)) (let ((?v_0 (f11 f40 ?v0))) (= (f33 (f34 f35 ?v_0) (f9 f10 (f11 f12 (f11 f13 f14)))) (f11 (f36 f37 ?v_0) ?v_0)))))
(assert (forall ((?v0 S2) (?v1 S2)) (=> (= (f32 (f9 f10 f14) ?v0) f1) (= (f6 (f7 f27 (f6 f16 ?v1)) ?v0) (f6 (f7 f27 ?v1) (f6 (f7 f27 ?v0) (f9 f10 (f11 f13 f14))))))))
(assert (forall ((?v0 S2) (?v1 S2)) (let ((?v_1 (f9 f10 (f11 f12 (f11 f13 f14)))) (?v_0 (f7 f20 ?v0))) (= (f6 ?v_0 (f6 (f7 f8 ?v_1) ?v1)) (f6 (f7 f20 (f6 ?v_0 ?v1)) ?v_1)))))
(assert (forall ((?v0 S4) (?v1 S2)) (let ((?v_1 (f9 f10 (f11 f12 (f11 f13 f14)))) (?v_0 (f29 f30 ?v0))) (= (f3 ?v_0 (f6 (f7 f8 ?v_1) ?v1)) (f3 (f29 f30 (f3 ?v_0 ?v1)) ?v_1)))))
(assert (forall ((?v0 S8) (?v1 S2)) (let ((?v_1 (f9 f10 (f11 f12 (f11 f13 f14)))) (?v_0 (f34 f35 ?v0))) (= (f33 ?v_0 (f6 (f7 f8 ?v_1) ?v1)) (f33 (f34 f35 (f33 ?v_0 ?v1)) ?v_1)))))
(assert (forall ((?v0 S2)) (= (f6 (f7 f8 ?v0) ?v0) (f6 (f7 f20 ?v0) (f9 f10 (f11 f12 (f11 f13 f14)))))))
(assert (forall ((?v0 S4)) (= (f23 (f24 f28 ?v0) ?v0) (f3 (f29 f30 ?v0) (f9 f10 (f11 f12 (f11 f13 f14)))))))
(assert (forall ((?v0 S8)) (= (f11 (f36 f37 ?v0) ?v0) (f33 (f34 f35 ?v0) (f9 f10 (f11 f12 (f11 f13 f14)))))))
(assert (forall ((?v0 S2)) (= (f6 (f7 f20 ?v0) (f9 f10 (f11 f12 (f11 f13 f14)))) (f6 (f7 f8 ?v0) ?v0))))
(assert (forall ((?v0 S4)) (= (f3 (f29 f30 ?v0) (f9 f10 (f11 f12 (f11 f13 f14)))) (f23 (f24 f28 ?v0) ?v0))))
(assert (forall ((?v0 S8)) (= (f33 (f34 f35 ?v0) (f9 f10 (f11 f12 (f11 f13 f14)))) (f11 (f36 f37 ?v0) ?v0))))
(assert (forall ((?v0 S2)) (= (f32 ?v0 (f6 f16 ?v0)) f1)))
(assert (forall ((?v0 S2) (?v1 S2)) (=> (= (f32 ?v0 ?v1) f1) (= (f32 (f6 f16 ?v0) (f6 f16 ?v1)) f1))))
(assert (forall ((?v0 S2)) (= (f6 (f7 f20 ?v0) (f9 f10 (f11 f13 (f11 f13 f14)))) (f6 (f7 f8 (f6 (f7 f8 ?v0) ?v0)) ?v0))))
(assert (forall ((?v0 S4)) (= (f3 (f29 f30 ?v0) (f9 f10 (f11 f13 (f11 f13 f14)))) (f23 (f24 f28 (f23 (f24 f28 ?v0) ?v0)) ?v0))))
(assert (forall ((?v0 S8)) (= (f33 (f34 f35 ?v0) (f9 f10 (f11 f13 (f11 f13 f14)))) (f11 (f36 f37 (f11 (f36 f37 ?v0) ?v0)) ?v0))))
(assert (forall ((?v0 S4)) (= (f23 (f24 f28 ?v0) (f38 f39 (f11 f13 f14))) ?v0)))
(assert (forall ((?v0 S8)) (= (f11 (f36 f37 ?v0) (f11 f40 (f11 f13 f14))) ?v0)))
(assert (forall ((?v0 S8) (?v1 S2) (?v2 S2)) (let ((?v_0 (f34 f35 ?v0))) (= (f33 (f34 f35 (f33 ?v_0 ?v1)) ?v2) (f33 ?v_0 (f6 (f7 f8 ?v1) ?v2))))))
(assert (forall ((?v0 S8)) (= (f11 (f36 f37 f14) ?v0) f14)))
(assert (forall ((?v0 S8) (?v1 S8)) (= (f11 (f36 f37 (f11 f12 ?v0)) ?v1) (f11 f12 (f11 (f36 f37 ?v0) ?v1)))))
(assert (forall ((?v0 S2) (?v1 S2) (?v2 S2) (?v3 S2)) (let ((?v_0 (f7 f8 ?v0))) (= (f6 (f7 f8 (f6 ?v_0 ?v1)) (f6 (f7 f8 ?v2) ?v3)) (f6 (f7 f8 (f6 ?v_0 ?v2)) (f6 (f7 f8 ?v1) ?v3))))))
(assert (forall ((?v0 S4) (?v1 S4) (?v2 S4) (?v3 S4)) (let ((?v_0 (f24 f28 ?v0))) (= (f23 (f24 f28 (f23 ?v_0 ?v1)) (f23 (f24 f28 ?v2) ?v3)) (f23 (f24 f28 (f23 ?v_0 ?v2)) (f23 (f24 f28 ?v1) ?v3))))))
(assert (forall ((?v0 S8) (?v1 S8) (?v2 S8) (?v3 S8)) (let ((?v_0 (f36 f37 ?v0))) (= (f11 (f36 f37 (f11 ?v_0 ?v1)) (f11 (f36 f37 ?v2) ?v3)) (f11 (f36 f37 (f11 ?v_0 ?v2)) (f11 (f36 f37 ?v1) ?v3))))))
(assert (forall ((?v0 S2) (?v1 S2) (?v2 S2) (?v3 S2)) (let ((?v_1 (f7 f8 (f6 (f7 f8 ?v0) ?v1))) (?v_0 (f7 f8 ?v2))) (= (f6 ?v_1 (f6 ?v_0 ?v3)) (f6 ?v_0 (f6 ?v_1 ?v3))))))
(assert (forall ((?v0 S4) (?v1 S4) (?v2 S4) (?v3 S4)) (let ((?v_1 (f24 f28 (f23 (f24 f28 ?v0) ?v1))) (?v_0 (f24 f28 ?v2))) (= (f23 ?v_1 (f23 ?v_0 ?v3)) (f23 ?v_0 (f23 ?v_1 ?v3))))))
(assert (forall ((?v0 S8) (?v1 S8) (?v2 S8) (?v3 S8)) (let ((?v_1 (f36 f37 (f11 (f36 f37 ?v0) ?v1))) (?v_0 (f36 f37 ?v2))) (= (f11 ?v_1 (f11 ?v_0 ?v3)) (f11 ?v_0 (f11 ?v_1 ?v3))))))
(assert (forall ((?v0 S2) (?v1 S2) (?v2 S2) (?v3 S2)) (let ((?v_0 (f7 f8 ?v0)) (?v_1 (f6 (f7 f8 ?v2) ?v3))) (= (f6 (f7 f8 (f6 ?v_0 ?v1)) ?v_1) (f6 ?v_0 (f6 (f7 f8 ?v1) ?v_1))))))
(assert (forall ((?v0 S4) (?v1 S4) (?v2 S4) (?v3 S4)) (let ((?v_0 (f24 f28 ?v0)) (?v_1 (f23 (f24 f28 ?v2) ?v3))) (= (f23 (f24 f28 (f23 ?v_0 ?v1)) ?v_1) (f23 ?v_0 (f23 (f24 f28 ?v1) ?v_1))))))
(assert (forall ((?v0 S8) (?v1 S8) (?v2 S8) (?v3 S8)) (let ((?v_0 (f36 f37 ?v0)) (?v_1 (f11 (f36 f37 ?v2) ?v3))) (= (f11 (f36 f37 (f11 ?v_0 ?v1)) ?v_1) (f11 ?v_0 (f11 (f36 f37 ?v1) ?v_1))))))
(assert (forall ((?v0 S2) (?v1 S2) (?v2 S2)) (let ((?v_0 (f7 f8 ?v0))) (= (f6 (f7 f8 (f6 ?v_0 ?v1)) ?v2) (f6 (f7 f8 (f6 ?v_0 ?v2)) ?v1)))))
(assert (forall ((?v0 S4) (?v1 S4) (?v2 S4)) (let ((?v_0 (f24 f28 ?v0))) (= (f23 (f24 f28 (f23 ?v_0 ?v1)) ?v2) (f23 (f24 f28 (f23 ?v_0 ?v2)) ?v1)))))
(assert (forall ((?v0 S8) (?v1 S8) (?v2 S8)) (let ((?v_0 (f36 f37 ?v0))) (= (f11 (f36 f37 (f11 ?v_0 ?v1)) ?v2) (f11 (f36 f37 (f11 ?v_0 ?v2)) ?v1)))))
(assert (forall ((?v0 S2) (?v1 S2) (?v2 S2)) (let ((?v_0 (f7 f8 ?v0))) (= (f6 (f7 f8 (f6 ?v_0 ?v1)) ?v2) (f6 ?v_0 (f6 (f7 f8 ?v1) ?v2))))))
(assert (forall ((?v0 S4) (?v1 S4) (?v2 S4)) (let ((?v_0 (f24 f28 ?v0))) (= (f23 (f24 f28 (f23 ?v_0 ?v1)) ?v2) (f23 ?v_0 (f23 (f24 f28 ?v1) ?v2))))))
(assert (forall ((?v0 S8) (?v1 S8) (?v2 S8)) (let ((?v_0 (f36 f37 ?v0))) (= (f11 (f36 f37 (f11 ?v_0 ?v1)) ?v2) (f11 ?v_0 (f11 (f36 f37 ?v1) ?v2))))))
(assert (forall ((?v0 S2) (?v1 S2) (?v2 S2)) (let ((?v_0 (f7 f8 ?v0))) (= (f6 ?v_0 (f6 (f7 f8 ?v1) ?v2)) (f6 (f7 f8 (f6 ?v_0 ?v1)) ?v2)))))
(assert (forall ((?v0 S4) (?v1 S4) (?v2 S4)) (let ((?v_0 (f24 f28 ?v0))) (= (f23 ?v_0 (f23 (f24 f28 ?v1) ?v2)) (f23 (f24 f28 (f23 ?v_0 ?v1)) ?v2)))))
(assert (forall ((?v0 S8) (?v1 S8) (?v2 S8)) (let ((?v_0 (f36 f37 ?v0))) (= (f11 ?v_0 (f11 (f36 f37 ?v1) ?v2)) (f11 (f36 f37 (f11 ?v_0 ?v1)) ?v2)))))
(assert (forall ((?v0 S2) (?v1 S2) (?v2 S2)) (let ((?v_1 (f7 f8 ?v0)) (?v_0 (f7 f8 ?v1))) (= (f6 ?v_1 (f6 ?v_0 ?v2)) (f6 ?v_0 (f6 ?v_1 ?v2))))))
(assert (forall ((?v0 S4) (?v1 S4) (?v2 S4)) (let ((?v_1 (f24 f28 ?v0)) (?v_0 (f24 f28 ?v1))) (= (f23 ?v_1 (f23 ?v_0 ?v2)) (f23 ?v_0 (f23 ?v_1 ?v2))))))
(assert (forall ((?v0 S8) (?v1 S8) (?v2 S8)) (let ((?v_1 (f36 f37 ?v0)) (?v_0 (f36 f37 ?v1))) (= (f11 ?v_1 (f11 ?v_0 ?v2)) (f11 ?v_0 (f11 ?v_1 ?v2))))))
(assert (forall ((?v0 S2) (?v1 S2)) (= (f6 (f7 f8 ?v0) ?v1) (f6 (f7 f8 ?v1) ?v0))))
(assert (forall ((?v0 S4) (?v1 S4)) (= (f23 (f24 f28 ?v0) ?v1) (f23 (f24 f28 ?v1) ?v0))))
(assert (forall ((?v0 S8) (?v1 S8)) (= (f11 (f36 f37 ?v0) ?v1) (f11 (f36 f37 ?v1) ?v0))))
(assert (forall ((?v0 S8) (?v1 S8)) (= (= (f38 f39 ?v0) (f38 f39 ?v1)) (= ?v0 ?v1))))
(assert (forall ((?v0 S8) (?v1 S8)) (= (= (f11 f40 ?v0) (f11 f40 ?v1)) (= ?v0 ?v1))))
(assert (forall ((?v0 S8) (?v1 S4)) (let ((?v_0 (f38 f39 ?v0))) (= (= ?v_0 ?v1) (= ?v1 ?v_0)))))
(assert (forall ((?v0 S8) (?v1 S2)) (let ((?v_0 (f9 f10 ?v0))) (= (= ?v_0 ?v1) (= ?v1 ?v_0)))))
(assert (forall ((?v0 S8) (?v1 S8)) (let ((?v_0 (f11 f40 ?v0))) (= (= ?v_0 ?v1) (= ?v1 ?v_0)))))
(assert (forall ((?v0 S8) (?v1 S8)) (= (= (f11 f13 ?v0) (f11 f13 ?v1)) (= ?v0 ?v1))))
(assert (= (= f14 f14) true))
(check-sat)
(exit)
